sing20130105.12
TTAA  55121 48698
99004 30260 02005 00081 29657 00506 92771 23036 31515
85504 18856 29524 70148 10033 28027 50587 05159 33514
40759 14959 01010 30971 29539 08006 25098 39935 08012
20246 52545 10032 15426 67346 11053
88999
77118 07576 44349=
=
=
